p cnf 10 55
-3 2 -4 0
-2 3 -10 0
3 4 -6 0
-7 6 -5 0
-4 -2 7 0
-5 7 -8 0
7 -10 -5 0
-5 -8 1 0
-5 7 1 0
-3 -8 -6 0
7 -4 -5 0
5 7 1 0
-9 1 -10 0
-1 -10 3 0
-8 1 -9 0
-5 -4 -1 0
-7 -6 -9 0
-4 7 -9 0
-3 7 -10 0
-2 6 4 0
3 -4 -8 0
3 9 -4 0
3 -9 2 0
1 7 -4 0
3 -5 8 0
-6 -10 1 0
3 7 -6 0
1 -2 7 0
-6 -9 -10 0
-6 1 3 0
-10 -9 7 0
2 -8 -5 0
8 -10 1 0
-9 -5 6 0
3 -9 -10 0
-10 -2 -8 0
9 -2 7 0
-10 -4 -9 0
-2 7 -4 0
1 7 -4 0
9 1 4 0
-8 7 -5 0
7 1 -2 0
-6 1 -2 0
3 2 -8 0
1 -6 -7 0
2 5 -4 0
-8 10 -4 0
3 10 -6 0
2 -9 1 0
-9 -6 -10 0
7 -5 2 0
1 -4 -2 0
5 -10 -4 0
-2 7 -10 0
%
0